53
73
73
86
0
77
28
43
20
0
36
68
60
28
87
185
0
39
32
36
71
59
46
62
71
22
43
63
78
41
48
32
47
44
48
150
48
36
38
55
77
66
36
36
0
50
55
35
31
31
45
0
123
41
47
53
64
81
113
35
50
86
108
40
67
40
58
71
66
28
46
32
46
99
24
52
111
64
28
0
50
62
29
47
26
82
0
38
79
117
47
50
81
34
46
55
89
37
48
40
